8841177128930306660505,15,1,2,08,3,1,2,012,10,1,2,010,2,1,2,011,8,1,2,014,5,1,2,015,10,1,2,06,5,1,2,08,5,1,2,014,12,1,2,01,3,1,2,04,9,1,2,08,9,1,2,011,10,1,2,08,7,1,2,07,14,1,2,04,12,1,2,010,7,1,2,05,2,1,2,09,4,1,2,08,11,1,2,012,12,1,2,06,1,1,2,06,11,1,2,02,12,1,2,013,15,1,2,010,9,1,2,06,9,1,2,05,7,1,2,01,2,1,2,01,9,1,2,09,2,1,2,011,9,1,2,06,15,1,2,010,4,1,2,04,1,1,2,07,5,1,2,09,1,1,2,06,8,1,2,07,12,1,2,07,5,1,2,09,6,1,2,012,10,1,2,03,15,1,2,06,8,1,2,06,15,1,2,06,1,1,2,012,7,1,2,08,10,1,2,07,14,1,2,0